c uprop, v00.0, 
c reading from data/prog41.c.cnf
c done reading: 0.002511
p cnf 194 948
-99 -119 0
-99 -115 0
99 115 119 0
-93 115 119 0
-93 -115 -119 0
93 115 -119 0
93 -115 119 0
99 -111 0
-109 -111 0
-99 109 111 0
-99 -104 109 0
99 -104 -109 0
99 104 109 0
-99 104 -109 0
-100 111 0
-97 -100 0
97 100 -111 0
-95 97 -111 0
-95 -97 111 0
95 97 111 0
95 -97 -111 0
-94 100 0
-91 -94 0
91 94 -100 0
91 -100 -117 0
-91 100 -117 0
91 100 117 0
-91 -100 117 0
94 -121 0
-113 -121 0
-94 113 121 0
-94 113 -122 0
94 -113 -122 0
94 113 122 0
-94 -113 122 0
121 -123 0
-106 -123 0
106 -121 123 0
106 -121 -124 0
-106 121 -124 0
106 121 124 0
-106 -121 124 0
123 -125 0
-102 -125 0
102 -123 125 0
102 -123 -126 0
-102 123 -126 0
102 123 126 0
-102 -123 126 0
115 -127 0
119 -127 0
-115 -119 127 0
-115 -119 -128 0
115 119 -128 0
-115 119 128 0
115 -119 128 0
-109 -115 129 0
-109 -127 129 0
-115 -127 129 0
109 115 -129 0
109 127 -129 0
115 127 -129 0
109 -129 -130 0
115 -129 -130 0
127 -129 -130 0
-109 129 130 0
-115 129 130 0
-127 129 130 0
-109 -115 -127 130 0
109 115 127 -130 0
-97 -109 131 0
-97 -129 131 0
-109 -129 131 0
97 109 -131 0
97 129 -131 0
109 129 -131 0
97 -131 -132 0
109 -131 -132 0
129 -131 -132 0
-97 131 132 0
-109 131 132 0
-129 131 132 0
-97 -109 -129 132 0
97 109 129 -132 0
-91 -97 133 0
-91 -131 133 0
-97 -131 133 0
91 97 -133 0
91 131 -133 0
97 131 -133 0
-89 91 -133 0
-89 97 -133 0
-89 131 -133 0
89 -91 133 0
89 -97 133 0
89 -131 133 0
89 -91 -97 -131 0
-89 91 97 131 0
88 -91 -113 0
88 -113 -133 0
88 -91 -133 0
-88 91 113 0
-88 113 133 0
-88 91 133 0
-87 -88 113 0
-87 -88 91 0
-87 -88 133 0
87 88 -113 0
87 88 -91 0
87 88 -133 0
87 -91 -113 -133 0
-87 91 113 133 0
86 -106 -113 0
86 -88 -106 0
86 -88 -113 0
-86 106 113 0
-86 88 106 0
-86 88 113 0
-85 -86 106 0
-85 -86 113 0
-85 -86 88 0
85 86 -106 0
85 86 -113 0
85 86 -88 0
85 -88 -106 -113 0
-85 88 106 113 0
84 -102 -106 0
84 -86 -102 0
84 -86 -106 0
-84 102 106 0
-84 86 102 0
-84 86 106 0
-84 102 -118 0
-84 106 -118 0
-84 86 -118 0
84 -102 118 0
84 -106 118 0
84 -86 118 0
-86 -102 -106 118 0
86 102 106 -118 0
102 -114 0
84 -114 0
-84 -102 114 0
-84 -102 -108 0
84 102 -108 0
84 -102 108 0
-84 102 108 0
-96 130 0
-96 119 0
96 -119 -130 0
-90 -119 -130 0
-90 119 130 0
90 119 -130 0
90 -119 130 0
112 -115 -132 0
-96 112 -132 0
-96 112 -115 0
-112 115 132 0
96 -112 132 0
96 -112 115 0
-105 -112 132 0
-105 -112 115 0
96 -105 -112 0
105 112 -132 0
105 112 -115 0
-96 105 112 0
-96 105 -115 -132 0
96 -105 115 132 0
-89 101 -109 0
-89 101 -112 0
101 -109 -112 0
89 -101 109 0
89 -101 112 0
-101 109 112 0
-83 89 -101 0
-83 -101 109 0
-83 -101 112 0
83 -89 101 0
83 101 -109 0
83 101 -112 0
83 -89 -109 -112 0
-83 89 109 112 0
82 -87 -97 0
82 -87 -101 0
82 -97 -101 0
-82 87 97 0
-82 87 101 0
-82 97 101 0
-81 -82 87 0
-81 -82 97 0
-81 -82 101 0
81 82 -87 0
81 82 -97 0
81 82 -101 0
81 -87 -97 -101 0
-81 87 97 101 0
80 -85 -91 0
80 -82 -85 0
80 -82 -91 0
-80 85 91 0
-80 82 85 0
-80 82 91 0
-79 -80 85 0
-79 -80 91 0
-79 -80 82 0
79 80 -85 0
79 80 -91 0
79 80 -82 0
79 -82 -85 -91 0
-79 82 85 91 0
78 -113 -118 0
78 -80 -118 0
78 -80 -113 0
-78 113 118 0
-78 80 118 0
-78 80 113 0
-77 -78 118 0
-77 -78 113 0
-77 -78 80 0
77 78 -118 0
77 78 -113 0
77 78 -80 0
77 -80 -113 -118 0
-77 80 113 118 0
76 -106 -108 0
76 -78 -108 0
76 -78 -106 0
-76 106 108 0
-76 78 108 0
-76 78 106 0
-75 -76 108 0
-75 -76 106 0
-75 -76 78 0
75 76 -108 0
75 76 -106 0
75 76 -78 0
75 -78 -106 -108 0
-75 78 106 108 0
74 -102 -114 0
74 -76 -114 0
74 -76 -102 0
-74 102 114 0
-74 76 114 0
-74 76 102 0
-73 -74 114 0
-73 -74 102 0
-73 -74 76 0
73 74 -114 0
73 74 -102 0
73 74 -76 0
73 -76 -102 -114 0
-73 76 102 114 0
-72 83 0
-72 119 0
72 -83 -119 0
-71 -83 -119 0
-71 83 119 0
71 -83 119 0
71 83 -119 0
70 -81 -115 0
70 -72 -81 0
70 -72 -115 0
-70 81 115 0
-70 72 81 0
-70 72 115 0
-69 -70 81 0
-69 -70 115 0
-69 -70 72 0
69 70 -81 0
69 70 -115 0
69 70 -72 0
69 -72 -81 -115 0
-69 72 81 115 0
68 -79 -109 0
68 -70 -79 0
68 -70 -109 0
-68 79 109 0
-68 70 79 0
-68 70 109 0
-68 79 -134 0
-68 109 -134 0
-68 70 -134 0
68 -79 134 0
68 -109 134 0
68 -70 134 0
-70 -79 -109 134 0
70 79 109 -134 0
-77 -97 135 0
-68 -77 135 0
-68 -97 135 0
77 97 -135 0
68 77 -135 0
68 97 -135 0
77 -135 -136 0
97 -135 -136 0
68 -135 -136 0
-77 135 136 0
-97 135 136 0
-68 135 136 0
-68 -77 -97 136 0
68 77 97 -136 0
-75 -91 137 0
-75 -135 137 0
-91 -135 137 0
75 91 -137 0
75 135 -137 0
91 135 -137 0
75 -137 -138 0
91 -137 -138 0
135 -137 -138 0
-75 137 138 0
-91 137 138 0
-135 137 138 0
-75 -91 -135 138 0
75 91 135 -138 0
-73 -113 139 0
-73 -137 139 0
-113 -137 139 0
73 113 -139 0
73 137 -139 0
113 137 -139 0
73 -139 -140 0
113 -139 -140 0
137 -139 -140 0
-73 139 140 0
-113 139 140 0
-137 139 140 0
-73 -113 -137 140 0
73 113 137 -140 0
-74 -106 141 0
-74 -139 141 0
-106 -139 141 0
74 106 -141 0
74 139 -141 0
106 139 -141 0
74 -141 -142 0
106 -141 -142 0
139 -141 -142 0
-74 141 142 0
-106 141 142 0
-139 141 142 0
-74 -106 -139 142 0
74 106 139 -142 0
102 -143 0
141 -143 0
-102 -141 143 0
-102 -141 -144 0
102 141 -144 0
-102 141 144 0
102 -141 144 0
-119 -145 0
-128 -145 0
119 128 145 0
119 128 -146 0
-119 -128 -146 0
-119 128 146 0
119 -128 146 0
145 -147 0
-90 -147 0
90 -145 147 0
90 -145 -148 0
-90 145 -148 0
90 145 148 0
-90 -145 148 0
147 -149 0
-105 -149 0
105 -147 149 0
105 -147 -150 0
-105 147 -150 0
105 147 150 0
-105 -147 150 0
149 -151 0
-71 -151 0
71 -149 151 0
71 -149 -152 0
-71 149 -152 0
71 149 152 0
-71 -149 152 0
151 -153 0
-69 -153 0
69 -151 153 0
69 -151 -154 0
-69 151 -154 0
69 151 154 0
-69 -151 154 0
153 -155 0
-134 -155 0
134 -153 155 0
134 -153 -156 0
-134 153 -156 0
134 153 156 0
-134 -153 156 0
155 -157 0
-136 -157 0
136 -155 157 0
136 -155 -158 0
-136 155 -158 0
136 155 158 0
-136 -155 158 0
157 -159 0
-138 -159 0
138 -157 159 0
138 -157 -160 0
-138 157 -160 0
138 157 160 0
-138 -157 160 0
159 -161 0
-140 -161 0
140 -159 161 0
140 -159 -162 0
-140 159 -162 0
140 159 162 0
-140 -159 162 0
161 -163 0
-142 -163 0
142 -161 163 0
142 -161 -164 0
-142 161 -164 0
142 161 164 0
-142 -161 164 0
163 -165 0
-144 -165 0
144 -163 165 0
144 -163 -166 0
-144 163 -166 0
144 163 166 0
-144 -163 166 0
165 -167 0
-143 -167 0
143 -165 167 0
143 -165 -168 0
-143 165 -168 0
143 165 168 0
-143 -165 168 0
-169 -171 0
169 171 0
169 -172 0
-169 172 0
171 -173 0
-173 -174 0
-171 173 174 0
-171 174 -176 0
171 -174 -176 0
171 174 176 0
-171 -174 176 0
173 -177 0
-177 -178 0
-173 177 178 0
-173 178 -180 0
173 -178 -180 0
173 178 180 0
-173 -178 180 0
177 -181 0
-181 -182 0
-177 181 182 0
-177 182 -184 0
177 -182 -184 0
177 182 184 0
-177 -182 184 0
181 -185 0
-185 -186 0
-181 185 186 0
-120 -181 186 0
-120 181 -186 0
120 181 186 0
120 -181 -186 0
-116 185 0
-116 -188 0
116 -185 188 0
-110 -185 188 0
-110 185 -188 0
110 185 188 0
110 -185 -188 0
-98 116 0
-98 -190 0
98 -116 190 0
-92 -116 190 0
-92 116 -190 0
92 116 190 0
92 -116 -190 0
-107 169 0
107 -169 0
103 -169 -174 0
-103 169 174 0
-103 174 0
-103 169 0
-103 174 -192 0
-103 169 -192 0
-103 -192 0
103 -174 192 0
103 -169 192 0
169 174 -192 0
170 -174 -178 0
-103 170 -178 0
-103 170 -174 0
-170 174 178 0
103 -170 178 0
103 -170 174 0
-170 -175 178 0
-170 174 -175 0
103 -170 -175 0
170 175 -178 0
170 -174 175 0
-103 170 175 0
-103 -174 175 -178 0
103 174 -175 178 0
-178 179 -182 0
-170 179 -182 0
-170 -178 179 0
178 -179 182 0
170 -179 182 0
170 178 -179 0
-179 182 -183 0
178 -179 -183 0
170 -179 -183 0
179 -182 183 0
-178 179 183 0
-170 179 183 0
-170 -178 -182 183 0
170 178 182 -183 0
-182 -186 187 0
-179 -186 187 0
-179 -182 187 0
182 186 -187 0
179 186 -187 0
179 182 -187 0
186 -187 -189 0
182 -187 -189 0
179 -187 -189 0
-186 187 189 0
-182 187 189 0
-179 187 189 0
-179 -182 -186 189 0
179 182 186 -189 0
-186 -188 191 0
-187 -188 191 0
-186 -187 191 0
186 188 -191 0
187 188 -191 0
186 187 -191 0
188 -191 -193 0
186 -191 -193 0
187 -191 -193 0
-188 191 193 0
-186 191 193 0
-187 191 193 0
-186 -187 -188 193 0
186 187 188 -193 0
-188 -190 194 0
-190 -191 194 0
-188 -191 194 0
188 190 -194 0
190 191 -194 0
188 191 -194 0
-67 190 -194 0
-67 188 -194 0
-67 191 -194 0
67 -190 194 0
67 -188 194 0
67 -191 194 0
67 -188 -190 -191 0
-67 188 190 191 0
-66 190 0
-66 194 0
66 -190 -194 0
-65 -190 -194 0
-65 190 194 0
65 -190 194 0
65 190 -194 0
-64 192 0
64 -192 0
63 -169 -175 0
-63 169 175 0
-63 175 0
-63 169 0
-62 -63 175 0
-62 -63 169 0
-62 -63 0
62 63 -175 0
62 63 -169 0
-62 169 175 0
61 -174 -183 0
61 -63 -183 0
61 -63 -174 0
-61 174 183 0
-61 63 183 0
-61 63 174 0
-60 -61 183 0
-60 -61 174 0
-60 -61 63 0
60 61 -183 0
60 61 -174 0
60 61 -63 0
60 -63 -174 -183 0
-60 63 174 183 0
59 -178 -189 0
59 -61 -189 0
59 -61 -178 0
-59 178 189 0
-59 61 189 0
-59 61 178 0
-58 -59 189 0
-58 -59 178 0
-58 -59 61 0
58 59 -189 0
58 59 -178 0
58 59 -61 0
58 -61 -178 -189 0
-58 61 178 189 0
57 -182 -193 0
57 -59 -193 0
57 -59 -182 0
-57 182 193 0
-57 59 193 0
-57 59 182 0
-56 -57 193 0
-56 -57 182 0
-56 -57 59 0
56 57 -193 0
56 57 -182 0
56 57 -59 0
56 -59 -182 -193 0
-56 59 182 193 0
55 -67 -186 0
55 -57 -67 0
55 -57 -186 0
-55 67 186 0
-55 57 67 0
-55 57 186 0
-54 -55 67 0
-54 -55 186 0
-54 -55 57 0
54 55 -67 0
54 55 -186 0
54 55 -57 0
54 -57 -67 -186 0
-54 57 67 186 0
53 -65 -188 0
53 -55 -65 0
53 -55 -188 0
-53 65 188 0
-53 55 65 0
-53 55 188 0
-52 -53 65 0
-52 -53 188 0
-52 -53 55 0
52 53 -65 0
52 53 -188 0
52 53 -55 0
52 -55 -65 -188 0
-52 55 65 188 0
51 -66 -190 0
51 -53 -66 0
51 -53 -190 0
-51 66 190 0
-51 53 66 0
-51 53 190 0
-50 -51 66 0
-50 -51 190 0
-50 -51 53 0
50 51 -66 0
50 51 -190 0
50 51 -53 0
50 -53 -66 -190 0
-50 53 66 190 0
-49 62 0
49 -62 0
48 -60 -169 0
-48 60 169 0
-48 60 0
-48 169 0
-47 -48 60 0
-47 -48 169 0
-47 -48 0
47 48 -60 0
47 48 -169 0
-47 60 169 0
46 -58 -174 0
46 -48 -58 0
46 -48 -174 0
-46 58 174 0
-46 48 58 0
-46 48 174 0
-45 -46 58 0
-45 -46 174 0
-45 -46 48 0
45 46 -58 0
45 46 -174 0
45 46 -48 0
45 -48 -58 -174 0
-45 48 58 174 0
44 -56 -178 0
44 -46 -56 0
44 -46 -178 0
-44 56 178 0
-44 46 56 0
-44 46 178 0
-43 -44 56 0
-43 -44 178 0
-43 -44 46 0
43 44 -56 0
43 44 -178 0
43 44 -46 0
43 -46 -56 -178 0
-43 46 56 178 0
42 -54 -182 0
42 -44 -54 0
42 -44 -182 0
-42 54 182 0
-42 44 54 0
-42 44 182 0
-41 -42 54 0
-41 -42 182 0
-41 -42 44 0
41 42 -54 0
41 42 -182 0
41 42 -44 0
41 -44 -54 -182 0
-41 44 54 182 0
40 -52 -186 0
40 -42 -52 0
40 -42 -186 0
-40 52 186 0
-40 42 52 0
-40 42 186 0
-39 -40 52 0
-39 -40 186 0
-39 -40 42 0
39 40 -52 0
39 40 -186 0
39 40 -42 0
39 -42 -52 -186 0
-39 42 52 186 0
38 -50 -188 0
38 -40 -50 0
38 -40 -188 0
-38 50 188 0
-38 40 50 0
-38 40 188 0
-37 -38 50 0
-37 -38 188 0
-37 -38 40 0
37 38 -50 0
37 38 -188 0
37 38 -40 0
37 -40 -50 -188 0
-37 40 50 188 0
36 -51 -190 0
36 -38 -51 0
36 -38 -190 0
-36 51 190 0
-36 38 51 0
-36 38 190 0
-35 -36 51 0
-35 -36 190 0
-35 -36 38 0
35 36 -51 0
35 36 -190 0
35 36 -38 0
35 -38 -51 -190 0
-35 38 51 190 0
-34 -107 0
34 107 0
-33 107 0
33 -107 0
-32 34 0
-32 -64 0
32 -34 64 0
-31 -34 64 0
-31 34 -64 0
31 34 64 0
31 -34 -64 0
-30 32 0
-30 -49 0
30 -32 49 0
-29 -32 49 0
-29 32 -49 0
29 32 49 0
29 -32 -49 0
-28 30 0
-28 -47 0
28 -30 47 0
-27 -30 47 0
-27 30 -47 0
27 30 47 0
27 -30 -47 0
-26 28 0
-26 -45 0
26 -28 45 0
-25 -28 45 0
-25 28 -45 0
25 28 45 0
25 -28 -45 0
-24 26 0
-24 -43 0
24 -26 43 0
-23 -26 43 0
-23 26 -43 0
23 26 43 0
23 -26 -43 0
-22 24 0
-22 -41 0
22 -24 41 0
-21 -24 41 0
-21 24 -41 0
21 24 41 0
21 -24 -41 0
-20 22 0
-20 -39 0
20 -22 39 0
-19 -22 39 0
-19 22 -39 0
19 22 39 0
19 -22 -39 0
-18 20 0
-18 -37 0
18 -20 37 0
-17 -20 37 0
-17 20 -37 0
17 20 37 0
17 -20 -37 0
-16 18 0
-16 -35 0
16 -18 35 0
-15 -18 35 0
-15 18 -35 0
15 18 35 0
15 -18 -35 0
-14 16 0
-14 -36 0
14 -16 36 0
-13 -16 36 0
-13 16 -36 0
13 16 36 0
13 -16 -36 0
-12 119 0
-12 107 0
12 -107 -119 0
-107 -119 0
107 119 0
11 -64 -128 0
11 -12 -128 0
11 -12 -64 0
-11 64 128 0
-11 12 128 0
-11 12 64 0
11 -128 0
11 -64 0
11 -12 0
-12 -64 -128 0
10 -49 -90 0
10 -11 -90 0
10 -11 -49 0
-10 49 90 0
-10 11 90 0
-10 11 49 0
10 -90 0
10 -49 0
10 -11 0
-11 -49 -90 0
9 -47 -105 0
9 -10 -105 0
9 -10 -47 0
-9 47 105 0
-9 10 105 0
-9 10 47 0
-9 105 0
-9 47 0
-9 10 0
10 47 105 0
8 -45 -71 0
8 -9 -71 0
8 -9 -45 0
-8 45 71 0
-8 9 71 0
-8 9 45 0
8 -71 0
8 -45 0
8 -9 0
-9 -45 -71 0
7 -43 -69 0
7 -8 -69 0
7 -8 -43 0
-7 43 69 0
-7 8 69 0
-7 8 43 0
7 -69 0
7 -43 0
7 -8 0
-8 -43 -69 0
6 -41 -134 0
6 -7 -134 0
6 -7 -41 0
-6 41 134 0
-6 7 134 0
-6 7 41 0
6 -134 0
6 -41 0
6 -7 0
-7 -41 -134 0
5 -39 -136 0
5 -6 -136 0
5 -6 -39 0
-5 39 136 0
-5 6 136 0
-5 6 39 0
5 -136 0
5 -39 0
5 -6 0
-6 -39 -136 0
4 -37 -138 0
4 -5 -138 0
4 -5 -37 0
-4 37 138 0
-4 5 138 0
-4 5 37 0
4 -138 0
4 -37 0
4 -5 0
-5 -37 -138 0
3 -35 -140 0
3 -4 -140 0
3 -4 -35 0
-3 35 140 0
-3 4 140 0
-3 4 35 0
3 -140 0
3 -35 0
3 -4 0
-4 -35 -140 0
2 -36 -142 0
2 -3 -142 0
2 -3 -36 0
-2 36 142 0
-2 3 142 0
-2 3 36 0
2 -142 0
2 -36 0
2 -3 0
-3 -36 -142 0
-1 144 0
-1 2 0
1 -2 -144 0
2 -144 0
-2 144 0
-1 -143 0
1 -143 0
-1 143 0
